data;
param f := 1;
param N := 4;
param M := 3;
param tMax := 8;
# 
# T1 - NULL
# T2 - SEND PREPREQ
# T3 - RECEIVED PREPREQ - SEND PREPRESPONSE
# T4 - RECEIVED M PREPRESPONSE - SEND COMMIT
# T5 - RECEIVED M COMMIT - RELAYED BLOCK
